db/inputs/108871419221766120603227018913264206051.smt2
(set-logic QF_FP)
(declare-const x0 (_ FloatingPoint 8 24))
(declare-const x1 (_ FloatingPoint 8 24))
(declare-const x2 (_ FloatingPoint 8 24))
(declare-const x3 (_ FloatingPoint 8 24))
(declare-const x4 (_ FloatingPoint 8 24))
(declare-const x5 (_ FloatingPoint 8 24))
(assert (fp.geq (fp.sub RNE x1 x5) (fp.sub RNE x4 x3)))
(assert (fp.geq (fp.neg x1) (fp.neg x5)))
(assert (fp.geq (fp.add RNE x2 x0) (fp.neg x2)))
(assert (fp.gt (fp.neg x2) (fp.add RNE x2 x5)))
(assert (fp.lt (fp.mul RNE x5 x4) (fp.sub RNE x0 x4)))
(assert (fp.geq (fp.neg x3) (fp.mul RNE x0 x2)))
(assert (fp.geq (fp.add RNE x1 x5) (fp.div RNE x0 x5)))
(check-sat)
