db/data/108871419221766120603227018913264206051.z3.out
sat
-------------------
40.522482685
